Maximize
    12 G1 + 12 G2 + 12 G3 + 10 M1 + 10 M2 + 10 M3 + 9 P1 + 9 P2 + 9 P3

Subject To
    R1: G1 + M1 + P1 <= 500
    R2: G2 + M2 + P2 <= 600
    R3: G3 + M3 + P3 <= 300
    R4: 20 G1 + 15 M1 + 12 P1 <= 9000
    R5: 20 G2 + 15 M2 + 12 P2 <= 8000
    R6: 20 G3 + 15 M3 + 12 P3 <= 3500
    R7: G1 + G2 + G3 <= 600
    R8: M1 + M2 + M3 <= 800
    R9: P1 + P2 + P3 <= 500
    R10: 0.002 G1 + 0.002 M1 + 0.002 P1 - 0.00333333333 G2 - 0.00333333333 M2 - 0.00333333333 P2 + 0.00333333333 G3 + 0.00333333333 M3 + 0.00333333333 P3 = 0

Bounds
    G1 >= 0
    G2 >= 0
    G3 >= 0
    M1 >= 0
    M2 >= 0
    M3 >= 0
    P1 >= 0
    P2 >= 0
    P3 >= 0

End

